[[4, 68, 75, 76, 26, 67, 34, 46, 7, 35, 8, 54, 19, 53, 14, 59], [11, 66, 65, 38, 10, 58, 72, 31, 39, 9, 25, 55, 50, 18], [24, 3, 44, 32, 40, 12, 17, 51, 6, 33, 73, 63, 16, 49], [23, 56, 41, 43, 42, 64, 22, 61, 28, 62, 74, 2, 30, 48], [21, 47, 69, 36, 71, 60, 70, 20, 37, 5, 15, 57, 29, 45, 27, 13, 52]]